multiobj/instances/uniform/Ter.7.2.0.80.1.in
7 2
0 354 977 433 188 905 753 
354 0 244 73 832 51 412 
977 244 0 484 391 403 210 
433 73 484 0 516 430 245 
188 832 391 516 0 147 797 
905 51 403 430 147 0 229 
753 412 210 245 797 229 0 
0 179 660 893 355 204 189 
179 0 386 298 179 399 732 
660 386 0 96 614 909 84 
893 298 96 0 596 551 843 
355 179 614 596 0 224 491 
204 399 909 551 224 0 60 
189 732 84 843 491 60 0 
0 169 698 828 442 359 14 
169 0 212 267 61 327 749 
698 212 0 69 657 861 60 
828 267 69 0 555 635 709 
442 61 657 555 0 214 670 
359 327 861 635 214 0 87 
14 749 60 709 670 87 0 
