multiobj/solutions/Ter.7.2.0.80.1.out
1 2
6 0 3 5 2 1 4 
5675424 5155354 
